Route #1: 46 4 39 42 40 34 6 64
Route #2: 60 3 57 30 61 62
Route #3: 53 44 36 1 49 35 14 50
Route #4: 11 19 20 7 38
Route #5: 12 58 56 55 54 22 52 45 31 18
Route #6: 33 47 26 2 66 41 16
Route #7: 65 37 23 8 32 51
Route #8: 43 27 10 29 24 59 17
Route #9: 28 13 15 5
Route #10: 63 25 21 48 9
Cost 1085